200
150
120
120
120
119
118
118
118
118
117
117
117
116
116
116
116
115
115
115
114
114
114
113
111
110
109
109
107
107
107
106
106
105
105
105
104
104
104
103
103
103
103
103
102
102
102
102
101
101
101
101
100
100
99
98
98
97
96
96
95
95
95
93
93
93
91
91
91
91
90
90
89
88
86
86
86
85
85
85
85
84
84
83
83
82
82
81
81
81
81
81
81
80
80
79
76
76
76
76
75
75
73
72
72
72
71
71
71
69
68
68
68
68
66
66
66
65
64
63
63
63
63
61
60
60
58
57
57
56
55
55
54
54
54
54
53
53
50
50
48
47
47
46
45
43
43
42
41
41
41
41
40
40
40
39
39
39
39
38
38
38
37
36
34
33
33
32
32
31
30
30
30
29
28
28
28
27
27
27
27
26
26
24
24
23
23
22
21
21
20
20
19
19
18
18
17
16
16
16
15
15
